% demand
num_movements = 29;
loading_factor = [2000, 850, 1450, 2000, 800, 1200, 850, 1450, 1300, 1800, 1950, 1100, 900, 1050, 1650, 1550, 1450, 1950, 1800, 1000, 1400, 1350, 1150, 1300, 1000, 1200, 850, 950, 1000];
pickup_time = [0, 0, 0, 0, 0, 0, 0, 1, 2, 2, 2, 2, 2, 2, 4, 7, 7, 7, 7, 7, 9, 9, 9, 10, 10, 10, 10, 10, 10];
delivery_time = [2, 1, 7, 1, 1, 1, 1, 9, 4, 10, 7, 6, 4, 6, 5, 11, 9, 9, 11, 9, 10, 11, 10, 11, 11, 11, 11, 11, 11];

% transporter definition
total_capacity = 11000;
num_decks = 4;
capacity = [3000, 3000, 1000, 4000];

% ways out of decks
num_ways_out = 2;
paths_out = array3d(decks, ways_out, decks, [
% ways out of deck d1
2, 4, 0, 0, 3, 4, 0, 0, 

% ways out of deck d2
4, 0, 0, 0, 0, 0, 0, 0,	

% ways out of deck d3
4, 0, 0, 0, 0, 0, 0, 0,	

% ways out of deck d4
0, 0, 0, 0,	0, 0, 0, 0,	

]);

